142 188 95 85 159 173 64 186 13 67 32 165 44 98 77 30 56 71 134 160 75 79 193 156 106 183 157 68 133 126 108 124 145 45 51 7 65 37 185 148 167 109 41 22 120 189 100 194 73 111 60 170 6 197 131 66 74 158 35 128 107 198 175 196 190 28 127 57 102 110 192 21 184 172 152 69 48 169 97 138 88 10 89 16 139 166 96 104 31 93 161 125 199 155 0 49 168 174 129 33 80 137 119 179 26 23 164 87 178 12 180 78 146 40 83 136 171 14 72 38 90 53 153 62 151 15 76 42 70 187 122 121 3 154 43 92 59 52 123 117 61 195 36 191 50 118 34 29 99 1 143 47 140 18 135 144 116 91 177 54 112 86 25 162 130 147 94 55 150 27 11 114 105 103 182 81 163 113 24 19 141 181 132 46 20 9 8 101 115 4 176 2 82 39 5 17 84 58 149 63